problems/VanDerWaerdenNumbers/VanDerWaerden-models/noch/O2/lingeling/model_2-k3l4n33-solution000001.eprime-solution
language ESSENCE' 1.0

letting p_PartitionAsSet_ExplicitR6_ExplicitVarSizeWithDummy be
        [[1, 2, 34, 34, 34, 34, 34, 34, 34, 34, 34, 34, 34, 34, 34, 34, 34, 34, 34, 34, 34, 34, 34, 34, 34, 34, 34, 34,
          34, 34, 34, 34, 34; int(1..33)],
         [3, 4, 6, 7, 8, 12, 15, 17, 18, 19, 23, 26, 28, 29, 30, 34, 34, 34, 34, 34, 34, 34, 34, 34, 34, 34, 34, 34, 34,
          34, 34, 34, 34; int(1..33)],
         [5, 9, 10, 11, 13, 14, 16, 20, 21, 22, 24, 25, 27, 31, 32, 33, 34, 34, 34, 34, 34, 34, 34, 34, 34, 34, 34, 34,
          34, 34, 34, 34, 34; int(1..33)]; int(1..3)]
