problems/VanDerWaerdenNumbers/VanDerWaerden-models/noch/O2/lingeling/model_2-k3l4n33-solution000001.solution
language Essence 1.3

letting p be
        partition({1, 2}, {3, 4, 6, 7, 8, 12, 15, 17, 18, 19, 23, 26, 28, 29, 30},
                  {5, 9, 10, 11, 13, 14, 16, 20, 21, 22, 24, 25, 27, 31, 32, 33})
